c FILE /home/rafael/Documents/HappySet/MIHS/inputs/happygen/output/graph_d_regular_k5_p0.4_v50_20241127_082633.txt
c SOURCE This is a d-regular graph formed for the happy graph colouring problem.
c DESCRIPTION It was generated using the problem generator of Rhyd Lewis
c
c GRAPH STATS
c Seed                             = -401794201
c Number of Nodes                  = 50
c Number of colours k              = 5
c Number of pre-assignments        = 20
c Degree of all vertices           = 6
c Density                          = 0.122449
c 
c The degrees of nodes 1 to 50, respectively, are as follows 
c [6, 6, 6, 6, 6, 6, 6, 6, 6, 6, 6, 6, 6, 6, 6, 6, 6, 6, 6, 6, 6, 6, 6, 6, 6, 6, 
c  6, 6, 6, 6, 6, 6, 6, 6, 6, 6, 6, 6, 6, 6, 6, 6, 6, 6, 6, 6, 6, 6, 6, 6] 
c  
p edge 50 150 5
e 1 19
e 1 20
e 1 25
e 1 36
e 1 39
e 1 41
e 2 6
e 2 40
e 2 42
e 2 44
e 2 46
e 2 50
e 3 7
e 3 13
e 3 25
e 3 30
e 3 48
e 3 49
e 4 5
e 4 7
e 4 16
e 4 17
e 4 39
e 4 41
e 5 23
e 5 24
e 5 32
e 5 42
e 5 46
e 6 23
e 6 24
e 6 28
e 6 43
e 6 45
e 7 24
e 7 26
e 7 46
e 7 48
e 8 15
e 8 16
e 8 33
e 8 43
e 8 47
e 8 49
e 9 19
e 9 21
e 9 27
e 9 34
e 9 37
e 9 50
e 10 11
e 10 15
e 10 21
e 10 33
e 10 34
e 10 47
e 11 26
e 11 39
e 11 47
e 11 49
e 11 50
e 12 18
e 12 20
e 12 37
e 12 38
e 12 41
e 12 45
e 13 16
e 13 29
e 13 30
e 13 34
e 13 45
e 14 21
e 14 25
e 14 28
e 14 32
e 14 43
e 14 44
e 15 28
e 15 32
e 15 42
e 15 46
e 16 26
e 16 27
e 16 44
e 17 20
e 17 26
e 17 27
e 17 29
e 17 48
e 18 22
e 18 25
e 18 35
e 18 39
e 18 50
e 19 25
e 19 36
e 19 38
e 19 48
e 20 28
e 20 38
e 20 39
e 21 31
e 21 32
e 21 46
e 22 24
e 22 29
e 22 36
e 22 37
e 22 47
e 23 37
e 23 38
e 23 41
e 23 45
e 24 29
e 24 30
e 25 32
e 26 34
e 26 35
e 27 30
e 27 32
e 27 35
e 28 40
e 28 42
e 29 33
e 29 49
e 30 33
e 30 43
e 31 33
e 31 40
e 31 42
e 31 49
e 31 50
e 33 46
e 34 36
e 34 44
e 35 37
e 35 42
e 35 44
e 36 43
e 36 50
e 37 40
e 38 40
e 38 47
e 39 49
e 40 48
e 41 43
e 41 47
e 44 45
e 45 48
n 1 1
n 2 3
n 4 1
n 11 3
n 12 2
n 15 3
n 23 4
n 25 1
n 26 3
n 28 3
n 29 3
n 30 2
n 31 3
n 34 3
n 35 3
n 43 2
n 44 3
n 48 5
n 49 3
n 50 3
